%mem=16GB
%nprocshared=16
#p vbscf/6-31G*

autovb{stru=cov,nae=8,nao=7}

0 1
O        0.341097178     -2.277576461      0.421341112
O       -1.525729522      3.778857444     -0.334713929
C        2.733799123     -0.656807367      0.248343381
C       -2.283809693     -1.441437884      0.268862506
C        1.324069931     -0.073245428      0.187285725
C       -1.128645006     -0.450385104      0.187765730
C        0.201361888     -0.925956779      0.265180762
C        1.081784281      1.289760164      0.017081079
C       -1.310622421      0.916113760      0.016623436
C       -0.219488257      1.793565941     -0.071122158
C        3.805828334      0.351900429      0.684850512
C        3.122586240     -1.311100400     -1.096234350
C       -2.481320688     -2.160645054     -1.082293355
C       -3.599389753     -0.810615089      0.745689470
C       -0.436503993      3.239225103     -0.248155259
H        2.738958633     -1.444981017      1.021294485
H       -1.994374318     -2.204284153      1.001446438
H        1.915087114      1.983841855     -0.045308832
H       -2.304945080      1.344063100     -0.046180803
H        3.958576892      1.128134874     -0.072202210
H        4.764376129     -0.157202363      0.823626605
H        3.540083965      0.841214319      1.626427958
H        2.393587206     -2.064304197     -1.411445430
H        4.103621878     -1.793193299     -1.027848758
H        3.170011624     -0.552669343     -1.884163059
H       -2.767477762     -1.446486155     -1.862366926
H       -3.274435271     -2.912371324     -1.004816831
H       -1.565487858     -2.665888161     -1.399419824
H       -3.473196008     -0.276098654      1.692403523
H       -4.352728200     -1.590568187      0.895136009
H       -4.005171213     -0.106113900      0.011706739
H        1.272947377     -2.496687836      0.547127576
H        0.499723713      3.841112846     -0.301699002

