%mem=4GB
%nprocshared=4
#p vbscf/6-31G*

autovb{nbo_file=C4H6.fch,novb,active_order=rumer,debug}

0 1
C   -3.329219900   2.091826940   0.000000000
H   -2.839967430   1.120094350  -0.000000040
H   -4.414989510   2.089928580   0.000000000
C   -2.624068780   3.231943550   0.000000010
H   -3.149818500   4.187367240   0.000000030
C   -1.168018280   3.297558130   0.000000020
H   -0.642289190   2.342122530   0.000000040
C   -0.462840870   4.437656730  -0.000000010
H   -0.952055180   5.409407090  -0.000000040
H    0.622929910   4.439514340  -0.000000010
